0000000000000000
0000000000000000
0111111111111100
0000000001110000
0000000001110000
0000000001110000
0000000001110000
0000000001110000
0000000001110000
0000000001110000
0000000001110000
0000000001110000
0000000001110000
0000000001110000
0000000000000000
0000000000000000
